1248
2
78, 92, 93, 56, 8, 11, 71, 57, 7, 23, 91, 35, 56, 57, 44, 9, 53, 71, 16, 56, 77, 52, 45, 11, 61, 61, 13, 19, 39, 100, 73, 49, 13
95, 42, 100, 83, 9, 85, 47, 50, 53, 97, 19, 15, 76, 4, 4, 68, 79, 2, 95, 40, 21, 76, 68, 88, 30, 55, 24, 84, 12, 29, 15, 56, 90
2, 2, 1, 2, 1, 1, 1, 1, 1, 1, 1, 1, 1, 2, 1, 1, 2, 2, 2, 2, 2, 1, 1, 2, 1, 2, 1, 1, 2, 1, 2, 1, 1